(set-logic HORN)


(declare-fun |INV1| ( Int Int Int Int Int Int Int Int ) Bool)

(assert
  (forall ( (A Int) (B Int) (C Int) (D Int) (E Int) (F Int) (G Int) (H Int) (I Int) (v_9 Int) ) 
    (=>
      (and
        (INV1 A B C D H I F G)
        (and (= F G) (= E 0) (not (>= A 1)) (<= C 9) (not (= H 0)) (= v_9 D))
      )
      (INV1 A B C D E v_9 F G)
    )
  )
)
(assert
  (forall ( (A Int) (B Int) (C Int) (D Int) (E Int) (F Int) (G Int) (H Int) (I Int) (J Int) ) 
    (=>
      (and
        (INV1 A B C D I J G H)
        (and (= G H)
     (= E 0)
     (= D (+ (- 2) F))
     (not (>= A 1))
     (not (<= C 99))
     (<= C 999)
     (not (<= C 9))
     (not (= I 0)))
      )
      (INV1 A B C D E F G H)
    )
  )
)
(assert
  (forall ( (A Int) (B Int) (C Int) (D Int) (E Int) (F Int) (G Int) (H Int) (I Int) (J Int) ) 
    (=>
      (and
        (INV1 A B J I E F G H)
        (and (= G H)
     (not (= E 0))
     (>= (+ (* 10000 C) (* (- 1) J)) (- 9999))
     (>= (+ J (* (- 10000) C)) 0)
     (not (>= A 1))
     (not (<= J 9999))
     (not (<= J 99))
     (not (<= J 999))
     (not (<= J 9))
     (= I (+ (- 4) D)))
      )
      (INV1 A B C D E F G H)
    )
  )
)
(assert
  (forall ( (A Int) (B Int) (C Int) (D Int) (E Int) (F Int) (G Int) (H Int) (I Int) (J Int) ) 
    (=>
      (and
        (INV1 A B C D I J G H)
        (and (= G H)
     (= E 0)
     (= D (+ (- 3) F))
     (not (>= A 1))
     (<= C 9999)
     (not (<= C 99))
     (not (<= C 999))
     (not (<= C 9))
     (not (= I 0)))
      )
      (INV1 A B C D E F G H)
    )
  )
)
(assert
  (forall ( (A Int) (B Int) (C Int) (D Int) (E Int) (F Int) (G Int) (H Int) (I Int) (J Int) ) 
    (=>
      (and
        (INV1 A B C D I J G H)
        (and (= G H)
     (= E 0)
     (= D (+ (- 1) F))
     (not (>= A 1))
     (<= C 99)
     (not (<= C 9))
     (not (= I 0)))
      )
      (INV1 A B C D E F G H)
    )
  )
)
(assert
  (forall ( (A Int) (B Int) (C Int) (D Int) (E Int) (F Int) (G Int) (H Int) (I Int) (J Int) (K Int) (L Int) (v_12 Int) ) 
    (=>
      (and
        (INV1 I H C D K L F G)
        (and (= H (+ (- 1) B))
     (= F G)
     (= E 0)
     (>= (+ (* 10 A) (* (- 1) I)) (- 9))
     (>= (+ (* 10 J) (* (- 1) I)) (- 9))
     (>= (+ I (* (- 10) A)) 0)
     (>= (+ I (* (- 10) J)) 0)
     (not (>= J 1))
     (>= I 1)
     (<= C 9)
     (not (= K 0))
     (= v_12 D))
      )
      (INV1 A B C D E v_12 F G)
    )
  )
)
(assert
  (forall ( (A Int) (B Int) (C Int) (D Int) (E Int) (F Int) (G Int) (H Int) (I Int) (J Int) (K Int) (L Int) (M Int) (N Int) (O Int) (P Int) (Q Int) (R Int) (S Int) (T Int) (U Int) (V Int) (W Int) (X Int) (Y Int) (Z Int) (A1 Int) (B1 Int) (v_28 Int) ) 
    (=>
      (and
        (INV1 K H C D A1 B1 F G)
        (and (= F G)
     (= E 0)
     (not (= A1 0))
     (>= (+ (* 10 P) (* (- 1) Q)) (- 9))
     (>= (+ (* 10 O) (* (- 1) K)) (- 9))
     (>= (+ (* 10 N) (* (- 1) K)) (- 9))
     (>= (+ (* 10 M) (* (- 1) N)) (- 9))
     (>= (+ (* 10 L) (* (- 1) K)) (- 9))
     (>= (+ (* 10 J) (* (- 1) K)) (- 9))
     (>= (+ (* 10 I) (* (- 1) J)) (- 9))
     (>= (+ (* 10 A) (* (- 1) I)) (- 9))
     (>= (+ (* 10 R) (* (- 1) K)) (- 9))
     (>= (+ (* 10 Q) (* (- 1) R)) (- 9))
     (>= (+ (* 10 S) (* (- 1) K)) (- 9))
     (>= (+ (* 10 Z) (* (- 1) K)) (- 9))
     (>= (+ (* 10 Y) (* (- 1) K)) (- 9))
     (>= (+ (* 10 X) (* (- 1) K)) (- 9))
     (>= (+ (* 10 W) (* (- 1) X)) (- 9))
     (>= (+ (* 10 V) (* (- 1) K)) (- 9))
     (>= (+ (* 10 U) (* (- 1) K)) (- 9))
     (>= (+ (* 10 T) (* (- 1) U)) (- 9))
     (>= (+ O (* (- 10) M)) 0)
     (>= (+ M (* (- 10) A)) 0)
     (>= (+ L (* (- 10) I)) 0)
     (>= (+ K (* (- 10) O)) 0)
     (>= (+ K (* (- 10) N)) 0)
     (>= (+ K (* (- 10) L)) 0)
     (>= (+ K (* (- 10) J)) 0)
     (>= (+ K (* (- 10) R)) 0)
     (>= (+ K (* (- 10) S)) 0)
     (>= (+ K (* (- 10) Z)) 0)
     (>= (+ K (* (- 10) Y)) 0)
     (>= (+ K (* (- 10) X)) 0)
     (>= (+ K (* (- 10) V)) 0)
     (>= (+ K (* (- 10) U)) 0)
     (>= (+ S (* (- 10) Q)) 0)
     (>= (+ Y (* (- 10) W)) 0)
     (>= (+ V (* (- 10) T)) 0)
     (>= (+ T (* (- 10) P)) 0)
     (not (>= P 1))
     (>= K 1)
     (>= Z 1)
     (>= W 1)
     (<= C 9)
     (= H (+ (- 3) B))
     (= v_28 D))
      )
      (INV1 A B C D E v_28 F G)
    )
  )
)
(assert
  (forall ( (A Int) (B Int) (C Int) (D Int) (E Int) (F Int) (G Int) (H Int) (I Int) (J Int) (K Int) (L Int) (M Int) (N Int) (O Int) (P Int) (Q Int) (R Int) (S Int) (T Int) (U Int) (V Int) (W Int) (X Int) (Y Int) (Z Int) (A1 Int) (B1 Int) (C1 Int) (D1 Int) (E1 Int) (F1 Int) (G1 Int) (H1 Int) (I1 Int) (J1 Int) (v_36 Int) ) 
    (=>
      (and
        (INV1 L H C D I1 J1 F G)
        (and (= F G)
     (= E 0)
     (not (= I1 0))
     (>= (+ (* 10 A) (* (- 1) I)) (- 9))
     (>= (+ (* 10 X) (* (- 1) Y)) (- 9))
     (>= (+ (* 10 W) (* (- 1) L)) (- 9))
     (>= (+ (* 10 V) (* (- 1) L)) (- 9))
     (>= (+ (* 10 U) (* (- 1) V)) (- 9))
     (>= (+ (* 10 T) (* (- 1) L)) (- 9))
     (>= (+ (* 10 S) (* (- 1) L)) (- 9))
     (>= (+ (* 10 R) (* (- 1) S)) (- 9))
     (>= (+ (* 10 Q) (* (- 1) R)) (- 9))
     (>= (+ (* 10 P) (* (- 1) L)) (- 9))
     (>= (+ (* 10 O) (* (- 1) L)) (- 9))
     (>= (+ (* 10 N) (* (- 1) O)) (- 9))
     (>= (+ (* 10 M) (* (- 1) L)) (- 9))
     (>= (+ (* 10 K) (* (- 1) L)) (- 9))
     (>= (+ (* 10 J) (* (- 1) K)) (- 9))
     (>= (+ (* 10 I) (* (- 1) J)) (- 9))
     (>= (+ (* 10 Z) (* (- 1) L)) (- 9))
     (>= (+ (* 10 Y) (* (- 1) Z)) (- 9))
     (>= (+ (* 10 A1) (* (- 1) L)) (- 9))
     (>= (+ (* 10 H1) (* (- 1) L)) (- 9))
     (>= (+ (* 10 G1) (* (- 1) L)) (- 9))
     (>= (+ (* 10 F1) (* (- 1) L)) (- 9))
     (>= (+ (* 10 E1) (* (- 1) F1)) (- 9))
     (>= (+ (* 10 D1) (* (- 1) L)) (- 9))
     (>= (+ (* 10 C1) (* (- 1) L)) (- 9))
     (>= (+ (* 10 B1) (* (- 1) C1)) (- 9))
     (>= (+ W (* (- 10) U)) 0)
     (>= (+ U (* (- 10) Q)) 0)
     (>= (+ T (* (- 10) R)) 0)
     (>= (+ Q (* (- 10) A)) 0)
     (>= (+ P (* (- 10) N)) 0)
     (>= (+ N (* (- 10) I)) 0)
     (>= (+ M (* (- 10) J)) 0)
     (>= (+ L (* (- 10) W)) 0)
     (>= (+ L (* (- 10) V)) 0)
     (>= (+ L (* (- 10) T)) 0)
     (>= (+ L (* (- 10) S)) 0)
     (>= (+ L (* (- 10) P)) 0)
     (>= (+ L (* (- 10) O)) 0)
     (>= (+ L (* (- 10) M)) 0)
     (>= (+ L (* (- 10) K)) 0)
     (>= (+ L (* (- 10) Z)) 0)
     (>= (+ L (* (- 10) A1)) 0)
     (>= (+ L (* (- 10) H1)) 0)
     (>= (+ L (* (- 10) G1)) 0)
     (>= (+ L (* (- 10) F1)) 0)
     (>= (+ L (* (- 10) D1)) 0)
     (>= (+ L (* (- 10) C1)) 0)
     (>= (+ A1 (* (- 10) Y)) 0)
     (>= (+ G1 (* (- 10) E1)) 0)
     (>= (+ D1 (* (- 10) B1)) 0)
     (>= (+ B1 (* (- 10) X)) 0)
     (>= X 1)
     (>= L 1)
     (>= H1 1)
     (>= E1 1)
     (<= C 9)
     (= H (+ (- 4) B))
     (= v_36 D))
      )
      (INV1 A B C D E v_36 F G)
    )
  )
)
(assert
  (forall ( (A Int) (B Int) (C Int) (D Int) (E Int) (F Int) (G Int) (H Int) (I Int) (J Int) (K Int) (L Int) (M Int) (N Int) (O Int) (P Int) (Q Int) (v_17 Int) ) 
    (=>
      (and
        (INV1 J H C D P Q F G)
        (and (= F G)
     (= H (+ (- 2) B))
     (not (= P 0))
     (>= (+ (* 10 A) (* (- 1) I)) (- 9))
     (>= (+ (* 10 O) (* (- 1) J)) (- 9))
     (>= (+ (* 10 N) (* (- 1) J)) (- 9))
     (>= (+ (* 10 M) (* (- 1) J)) (- 9))
     (>= (+ (* 10 L) (* (- 1) M)) (- 9))
     (>= (+ (* 10 K) (* (- 1) J)) (- 9))
     (>= (+ (* 10 I) (* (- 1) J)) (- 9))
     (>= (+ N (* (- 10) L)) 0)
     (>= (+ K (* (- 10) A)) 0)
     (>= (+ J (* (- 10) O)) 0)
     (>= (+ J (* (- 10) N)) 0)
     (>= (+ J (* (- 10) M)) 0)
     (>= (+ J (* (- 10) K)) 0)
     (>= (+ J (* (- 10) I)) 0)
     (>= O 1)
     (not (>= L 1))
     (>= J 1)
     (<= C 9)
     (= E 0)
     (= v_17 D))
      )
      (INV1 A B C D E v_17 F G)
    )
  )
)
(assert
  (forall ( (A Int) (B Int) (C Int) (D Int) (E Int) (F Int) (G Int) (H Int) (I Int) (J Int) (K Int) (L Int) (M Int) ) 
    (=>
      (and
        (INV1 J I C D L M G H)
        (and (not (= L 0))
     (= I (+ (- 1) B))
     (= G H)
     (= E 0)
     (>= (+ (* 10 A) (* (- 1) J)) (- 9))
     (>= (+ (* 10 K) (* (- 1) J)) (- 9))
     (>= (+ J (* (- 10) A)) 0)
     (>= (+ J (* (- 10) K)) 0)
     (not (>= K 1))
     (>= J 1)
     (not (<= C 99))
     (<= C 999)
     (not (<= C 9))
     (= D (+ (- 2) F)))
      )
      (INV1 A B C D E F G H)
    )
  )
)
(assert
  (forall ( (A Int) (B Int) (C Int) (D Int) (E Int) (F Int) (G Int) (H Int) (I Int) (J Int) (K Int) (L Int) (M Int) (N Int) (O Int) (P Int) (Q Int) (R Int) (S Int) (T Int) (U Int) (V Int) (W Int) (X Int) (Y Int) (Z Int) (A1 Int) (B1 Int) (C1 Int) ) 
    (=>
      (and
        (INV1 L I C D B1 C1 G H)
        (and (= G H)
     (= E 0)
     (= D (+ (- 2) F))
     (not (= B1 0))
     (>= (+ (* 10 A) (* (- 1) J)) (- 9))
     (>= (+ (* 10 Q) (* (- 1) R)) (- 9))
     (>= (+ (* 10 P) (* (- 1) L)) (- 9))
     (>= (+ (* 10 O) (* (- 1) L)) (- 9))
     (>= (+ (* 10 N) (* (- 1) O)) (- 9))
     (>= (+ (* 10 M) (* (- 1) L)) (- 9))
     (>= (+ (* 10 K) (* (- 1) L)) (- 9))
     (>= (+ (* 10 J) (* (- 1) K)) (- 9))
     (>= (+ (* 10 S) (* (- 1) L)) (- 9))
     (>= (+ (* 10 R) (* (- 1) S)) (- 9))
     (>= (+ (* 10 T) (* (- 1) L)) (- 9))
     (>= (+ (* 10 A1) (* (- 1) L)) (- 9))
     (>= (+ (* 10 Z) (* (- 1) L)) (- 9))
     (>= (+ (* 10 Y) (* (- 1) L)) (- 9))
     (>= (+ (* 10 X) (* (- 1) Y)) (- 9))
     (>= (+ (* 10 W) (* (- 1) L)) (- 9))
     (>= (+ (* 10 V) (* (- 1) L)) (- 9))
     (>= (+ (* 10 U) (* (- 1) V)) (- 9))
     (>= (+ P (* (- 10) N)) 0)
     (>= (+ N (* (- 10) A)) 0)
     (>= (+ M (* (- 10) J)) 0)
     (>= (+ L (* (- 10) P)) 0)
     (>= (+ L (* (- 10) O)) 0)
     (>= (+ L (* (- 10) M)) 0)
     (>= (+ L (* (- 10) K)) 0)
     (>= (+ L (* (- 10) S)) 0)
     (>= (+ L (* (- 10) T)) 0)
     (>= (+ L (* (- 10) A1)) 0)
     (>= (+ L (* (- 10) Z)) 0)
     (>= (+ L (* (- 10) Y)) 0)
     (>= (+ L (* (- 10) W)) 0)
     (>= (+ L (* (- 10) V)) 0)
     (>= (+ T (* (- 10) R)) 0)
     (>= (+ Z (* (- 10) X)) 0)
     (>= (+ W (* (- 10) U)) 0)
     (>= (+ U (* (- 10) Q)) 0)
     (not (>= Q 1))
     (>= L 1)
     (>= A1 1)
     (>= X 1)
     (not (<= C 99))
     (<= C 999)
     (not (<= C 9))
     (= I (+ (- 3) B)))
      )
      (INV1 A B C D E F G H)
    )
  )
)
(assert
  (forall ( (A Int) (B Int) (C Int) (D Int) (E Int) (F Int) (G Int) (H Int) (I Int) (J Int) (K Int) (L Int) (M Int) (N Int) (O Int) (P Int) (Q Int) (R Int) (S Int) (T Int) (U Int) (V Int) (W Int) (X Int) (Y Int) (Z Int) (A1 Int) (B1 Int) (C1 Int) (D1 Int) (E1 Int) (F1 Int) (G1 Int) (H1 Int) (I1 Int) (J1 Int) (K1 Int) ) 
    (=>
      (and
        (INV1 M I C D J1 K1 G H)
        (and (= G H)
     (= E 0)
     (= D (+ (- 2) F))
     (not (= J1 0))
     (>= (+ (* 10 A) (* (- 1) J)) (- 9))
     (>= (+ (* 10 Y) (* (- 1) Z)) (- 9))
     (>= (+ (* 10 X) (* (- 1) M)) (- 9))
     (>= (+ (* 10 W) (* (- 1) M)) (- 9))
     (>= (+ (* 10 V) (* (- 1) W)) (- 9))
     (>= (+ (* 10 U) (* (- 1) M)) (- 9))
     (>= (+ (* 10 T) (* (- 1) M)) (- 9))
     (>= (+ (* 10 S) (* (- 1) T)) (- 9))
     (>= (+ (* 10 R) (* (- 1) S)) (- 9))
     (>= (+ (* 10 Q) (* (- 1) M)) (- 9))
     (>= (+ (* 10 P) (* (- 1) M)) (- 9))
     (>= (+ (* 10 O) (* (- 1) P)) (- 9))
     (>= (+ (* 10 N) (* (- 1) M)) (- 9))
     (>= (+ (* 10 L) (* (- 1) M)) (- 9))
     (>= (+ (* 10 K) (* (- 1) L)) (- 9))
     (>= (+ (* 10 J) (* (- 1) K)) (- 9))
     (>= (+ (* 10 A1) (* (- 1) M)) (- 9))
     (>= (+ (* 10 Z) (* (- 1) A1)) (- 9))
     (>= (+ (* 10 B1) (* (- 1) M)) (- 9))
     (>= (+ (* 10 I1) (* (- 1) M)) (- 9))
     (>= (+ (* 10 H1) (* (- 1) M)) (- 9))
     (>= (+ (* 10 G1) (* (- 1) M)) (- 9))
     (>= (+ (* 10 F1) (* (- 1) G1)) (- 9))
     (>= (+ (* 10 E1) (* (- 1) M)) (- 9))
     (>= (+ (* 10 D1) (* (- 1) M)) (- 9))
     (>= (+ (* 10 C1) (* (- 1) D1)) (- 9))
     (>= (+ X (* (- 10) V)) 0)
     (>= (+ V (* (- 10) R)) 0)
     (>= (+ U (* (- 10) S)) 0)
     (>= (+ R (* (- 10) A)) 0)
     (>= (+ Q (* (- 10) O)) 0)
     (>= (+ O (* (- 10) J)) 0)
     (>= (+ N (* (- 10) K)) 0)
     (>= (+ M (* (- 10) X)) 0)
     (>= (+ M (* (- 10) W)) 0)
     (>= (+ M (* (- 10) U)) 0)
     (>= (+ M (* (- 10) T)) 0)
     (>= (+ M (* (- 10) Q)) 0)
     (>= (+ M (* (- 10) P)) 0)
     (>= (+ M (* (- 10) N)) 0)
     (>= (+ M (* (- 10) L)) 0)
     (>= (+ M (* (- 10) A1)) 0)
     (>= (+ M (* (- 10) B1)) 0)
     (>= (+ M (* (- 10) I1)) 0)
     (>= (+ M (* (- 10) H1)) 0)
     (>= (+ M (* (- 10) G1)) 0)
     (>= (+ M (* (- 10) E1)) 0)
     (>= (+ M (* (- 10) D1)) 0)
     (>= (+ B1 (* (- 10) Z)) 0)
     (>= (+ H1 (* (- 10) F1)) 0)
     (>= (+ E1 (* (- 10) C1)) 0)
     (>= (+ C1 (* (- 10) Y)) 0)
     (>= Y 1)
     (>= M 1)
     (>= I1 1)
     (>= F1 1)
     (not (<= C 99))
     (<= C 999)
     (not (<= C 9))
     (= I (+ (- 4) B)))
      )
      (INV1 A B C D E F G H)
    )
  )
)
(assert
  (forall ( (A Int) (B Int) (C Int) (D Int) (E Int) (F Int) (G Int) (H Int) (I Int) (J Int) (K Int) (L Int) (M Int) (N Int) (O Int) (P Int) (Q Int) (R Int) ) 
    (=>
      (and
        (INV1 K I C D Q R G H)
        (and (= D (+ (- 2) F))
     (= G H)
     (= I (+ (- 2) B))
     (not (= Q 0))
     (>= (+ (* 10 A) (* (- 1) J)) (- 9))
     (>= (+ (* 10 P) (* (- 1) K)) (- 9))
     (>= (+ (* 10 O) (* (- 1) K)) (- 9))
     (>= (+ (* 10 N) (* (- 1) K)) (- 9))
     (>= (+ (* 10 M) (* (- 1) N)) (- 9))
     (>= (+ (* 10 L) (* (- 1) K)) (- 9))
     (>= (+ (* 10 J) (* (- 1) K)) (- 9))
     (>= (+ O (* (- 10) M)) 0)
     (>= (+ L (* (- 10) A)) 0)
     (>= (+ K (* (- 10) P)) 0)
     (>= (+ K (* (- 10) O)) 0)
     (>= (+ K (* (- 10) N)) 0)
     (>= (+ K (* (- 10) L)) 0)
     (>= (+ K (* (- 10) J)) 0)
     (>= P 1)
     (not (>= M 1))
     (>= K 1)
     (not (<= C 99))
     (<= C 999)
     (not (<= C 9))
     (= E 0))
      )
      (INV1 A B C D E F G H)
    )
  )
)
(assert
  (forall ( (A Int) (B Int) (C Int) (D Int) (E Int) (F Int) (G Int) (H Int) (I Int) (J Int) (K Int) (L Int) (M Int) (N Int) (O Int) (P Int) (Q Int) (R Int) ) 
    (=>
      (and
        (INV1 M I K J E F G H)
        (and (= G H)
     (= I (+ (- 2) B))
     (= J (+ (- 4) D))
     (>= (+ (* 10000 C) (* (- 1) K)) (- 9999))
     (>= (+ (* 10 A) (* (- 1) L)) (- 9))
     (>= (+ (* 10 R) (* (- 1) M)) (- 9))
     (>= (+ (* 10 Q) (* (- 1) M)) (- 9))
     (>= (+ (* 10 P) (* (- 1) M)) (- 9))
     (>= (+ (* 10 O) (* (- 1) P)) (- 9))
     (>= (+ (* 10 N) (* (- 1) M)) (- 9))
     (>= (+ (* 10 L) (* (- 1) M)) (- 9))
     (>= (+ Q (* (- 10) O)) 0)
     (>= (+ N (* (- 10) A)) 0)
     (>= (+ M (* (- 10) R)) 0)
     (>= (+ M (* (- 10) Q)) 0)
     (>= (+ M (* (- 10) P)) 0)
     (>= (+ M (* (- 10) N)) 0)
     (>= (+ M (* (- 10) L)) 0)
     (>= (+ K (* (- 10000) C)) 0)
     (>= R 1)
     (not (>= O 1))
     (>= M 1)
     (not (<= K 9999))
     (not (<= K 99))
     (not (<= K 999))
     (not (<= K 9))
     (not (= E 0)))
      )
      (INV1 A B C D E F G H)
    )
  )
)
(assert
  (forall ( (A Int) (B Int) (C Int) (D Int) (E Int) (F Int) (G Int) (H Int) (I Int) (J Int) (K Int) (L Int) (M Int) (N Int) (O Int) (P Int) (Q Int) (R Int) (S Int) (T Int) (U Int) (V Int) (W Int) (X Int) (Y Int) (Z Int) (A1 Int) (B1 Int) (C1 Int) (D1 Int) (E1 Int) (F1 Int) (G1 Int) (H1 Int) (I1 Int) (J1 Int) (K1 Int) ) 
    (=>
      (and
        (INV1 O I K J E F G H)
        (and (= G H)
     (not (= E 0))
     (= J (+ (- 4) D))
     (>= (+ (* 10000 C) (* (- 1) K)) (- 9999))
     (>= (+ (* 10 A) (* (- 1) L)) (- 9))
     (>= (+ (* 10 Y) (* (- 1) O)) (- 9))
     (>= (+ (* 10 X) (* (- 1) Y)) (- 9))
     (>= (+ (* 10 W) (* (- 1) O)) (- 9))
     (>= (+ (* 10 V) (* (- 1) O)) (- 9))
     (>= (+ (* 10 U) (* (- 1) V)) (- 9))
     (>= (+ (* 10 T) (* (- 1) U)) (- 9))
     (>= (+ (* 10 S) (* (- 1) O)) (- 9))
     (>= (+ (* 10 R) (* (- 1) O)) (- 9))
     (>= (+ (* 10 Q) (* (- 1) R)) (- 9))
     (>= (+ (* 10 P) (* (- 1) O)) (- 9))
     (>= (+ (* 10 N) (* (- 1) O)) (- 9))
     (>= (+ (* 10 M) (* (- 1) N)) (- 9))
     (>= (+ (* 10 L) (* (- 1) M)) (- 9))
     (>= (+ (* 10 A1) (* (- 1) B1)) (- 9))
     (>= (+ (* 10 Z) (* (- 1) O)) (- 9))
     (>= (+ (* 10 B1) (* (- 1) C1)) (- 9))
     (>= (+ (* 10 K1) (* (- 1) O)) (- 9))
     (>= (+ (* 10 J1) (* (- 1) O)) (- 9))
     (>= (+ (* 10 I1) (* (- 1) O)) (- 9))
     (>= (+ (* 10 H1) (* (- 1) I1)) (- 9))
     (>= (+ (* 10 G1) (* (- 1) O)) (- 9))
     (>= (+ (* 10 F1) (* (- 1) O)) (- 9))
     (>= (+ (* 10 E1) (* (- 1) F1)) (- 9))
     (>= (+ (* 10 D1) (* (- 1) O)) (- 9))
     (>= (+ (* 10 C1) (* (- 1) O)) (- 9))
     (>= (+ X (* (- 10) T)) 0)
     (>= (+ W (* (- 10) U)) 0)
     (>= (+ T (* (- 10) A)) 0)
     (>= (+ S (* (- 10) Q)) 0)
     (>= (+ Q (* (- 10) L)) 0)
     (>= (+ P (* (- 10) M)) 0)
     (>= (+ O (* (- 10) Y)) 0)
     (>= (+ O (* (- 10) W)) 0)
     (>= (+ O (* (- 10) V)) 0)
     (>= (+ O (* (- 10) S)) 0)
     (>= (+ O (* (- 10) R)) 0)
     (>= (+ O (* (- 10) P)) 0)
     (>= (+ O (* (- 10) N)) 0)
     (>= (+ O (* (- 10) Z)) 0)
     (>= (+ O (* (- 10) K1)) 0)
     (>= (+ O (* (- 10) J1)) 0)
     (>= (+ O (* (- 10) I1)) 0)
     (>= (+ O (* (- 10) G1)) 0)
     (>= (+ O (* (- 10) F1)) 0)
     (>= (+ O (* (- 10) D1)) 0)
     (>= (+ O (* (- 10) C1)) 0)
     (>= (+ K (* (- 10000) C)) 0)
     (>= (+ Z (* (- 10) X)) 0)
     (>= (+ J1 (* (- 10) H1)) 0)
     (>= (+ G1 (* (- 10) E1)) 0)
     (>= (+ E1 (* (- 10) A1)) 0)
     (>= (+ D1 (* (- 10) B1)) 0)
     (>= O 1)
     (>= A1 1)
     (>= K1 1)
     (>= H1 1)
     (not (<= K 9999))
     (not (<= K 99))
     (not (<= K 999))
     (not (<= K 9))
     (= I (+ (- 4) B)))
      )
      (INV1 A B C D E F G H)
    )
  )
)
(assert
  (forall ( (A Int) (B Int) (C Int) (D Int) (E Int) (F Int) (G Int) (H Int) (I Int) (J Int) (K Int) (L Int) (M Int) (N Int) (O Int) (P Int) (Q Int) (R Int) (S Int) (T Int) (U Int) (V Int) (W Int) (X Int) (Y Int) (Z Int) (A1 Int) (B1 Int) (C1 Int) ) 
    (=>
      (and
        (INV1 N I K J E F G H)
        (and (= I (+ (- 3) B))
     (= G H)
     (not (= E 0))
     (>= (+ (* 10000 C) (* (- 1) K)) (- 9999))
     (>= (+ (* 10 A) (* (- 1) L)) (- 9))
     (>= (+ (* 10 Q) (* (- 1) N)) (- 9))
     (>= (+ (* 10 P) (* (- 1) Q)) (- 9))
     (>= (+ (* 10 O) (* (- 1) N)) (- 9))
     (>= (+ (* 10 M) (* (- 1) N)) (- 9))
     (>= (+ (* 10 L) (* (- 1) M)) (- 9))
     (>= (+ (* 10 S) (* (- 1) T)) (- 9))
     (>= (+ (* 10 R) (* (- 1) N)) (- 9))
     (>= (+ (* 10 T) (* (- 1) U)) (- 9))
     (>= (+ (* 10 C1) (* (- 1) N)) (- 9))
     (>= (+ (* 10 B1) (* (- 1) N)) (- 9))
     (>= (+ (* 10 A1) (* (- 1) N)) (- 9))
     (>= (+ (* 10 Z) (* (- 1) A1)) (- 9))
     (>= (+ (* 10 Y) (* (- 1) N)) (- 9))
     (>= (+ (* 10 X) (* (- 1) N)) (- 9))
     (>= (+ (* 10 W) (* (- 1) X)) (- 9))
     (>= (+ (* 10 V) (* (- 1) N)) (- 9))
     (>= (+ (* 10 U) (* (- 1) N)) (- 9))
     (>= (+ P (* (- 10) A)) 0)
     (>= (+ O (* (- 10) L)) 0)
     (>= (+ N (* (- 10) Q)) 0)
     (>= (+ N (* (- 10) O)) 0)
     (>= (+ N (* (- 10) M)) 0)
     (>= (+ N (* (- 10) R)) 0)
     (>= (+ N (* (- 10) C1)) 0)
     (>= (+ N (* (- 10) B1)) 0)
     (>= (+ N (* (- 10) A1)) 0)
     (>= (+ N (* (- 10) Y)) 0)
     (>= (+ N (* (- 10) X)) 0)
     (>= (+ N (* (- 10) V)) 0)
     (>= (+ N (* (- 10) U)) 0)
     (>= (+ K (* (- 10000) C)) 0)
     (>= (+ R (* (- 10) P)) 0)
     (>= (+ B1 (* (- 10) Z)) 0)
     (>= (+ Y (* (- 10) W)) 0)
     (>= (+ W (* (- 10) S)) 0)
     (>= (+ V (* (- 10) T)) 0)
     (>= N 1)
     (not (>= S 1))
     (>= C1 1)
     (>= Z 1)
     (not (<= K 9999))
     (not (<= K 99))
     (not (<= K 999))
     (not (<= K 9))
     (= J (+ (- 4) D)))
      )
      (INV1 A B C D E F G H)
    )
  )
)
(assert
  (forall ( (A Int) (B Int) (C Int) (D Int) (E Int) (F Int) (G Int) (H Int) (I Int) (J Int) (K Int) (L Int) (M Int) ) 
    (=>
      (and
        (INV1 L I K J E F G H)
        (and (= I (+ (- 1) B))
     (= G H)
     (not (= E 0))
     (>= (+ (* 10000 C) (* (- 1) K)) (- 9999))
     (>= (+ (* 10 A) (* (- 1) L)) (- 9))
     (>= (+ (* 10 M) (* (- 1) L)) (- 9))
     (>= (+ L (* (- 10) A)) 0)
     (>= (+ L (* (- 10) M)) 0)
     (>= (+ K (* (- 10000) C)) 0)
     (not (>= M 1))
     (>= L 1)
     (not (<= K 9999))
     (not (<= K 99))
     (not (<= K 999))
     (not (<= K 9))
     (= J (+ (- 4) D)))
      )
      (INV1 A B C D E F G H)
    )
  )
)
(assert
  (forall ( (A Int) (B Int) (C Int) (D Int) (E Int) (F Int) (G Int) (H Int) (I Int) (J Int) (K Int) (L Int) (M Int) (N Int) (O Int) (P Int) (Q Int) (R Int) ) 
    (=>
      (and
        (INV1 K I C D Q R G H)
        (and (= D (+ (- 3) F))
     (= G H)
     (= I (+ (- 2) B))
     (not (= Q 0))
     (>= (+ (* 10 A) (* (- 1) J)) (- 9))
     (>= (+ (* 10 P) (* (- 1) K)) (- 9))
     (>= (+ (* 10 O) (* (- 1) K)) (- 9))
     (>= (+ (* 10 N) (* (- 1) K)) (- 9))
     (>= (+ (* 10 M) (* (- 1) N)) (- 9))
     (>= (+ (* 10 L) (* (- 1) K)) (- 9))
     (>= (+ (* 10 J) (* (- 1) K)) (- 9))
     (>= (+ O (* (- 10) M)) 0)
     (>= (+ L (* (- 10) A)) 0)
     (>= (+ K (* (- 10) P)) 0)
     (>= (+ K (* (- 10) O)) 0)
     (>= (+ K (* (- 10) N)) 0)
     (>= (+ K (* (- 10) L)) 0)
     (>= (+ K (* (- 10) J)) 0)
     (>= P 1)
     (not (>= M 1))
     (>= K 1)
     (<= C 9999)
     (not (<= C 99))
     (not (<= C 999))
     (not (<= C 9))
     (= E 0))
      )
      (INV1 A B C D E F G H)
    )
  )
)
(assert
  (forall ( (A Int) (B Int) (C Int) (D Int) (E Int) (F Int) (G Int) (H Int) (I Int) (J Int) (K Int) (L Int) (M Int) (N Int) (O Int) (P Int) (Q Int) (R Int) (S Int) (T Int) (U Int) (V Int) (W Int) (X Int) (Y Int) (Z Int) (A1 Int) (B1 Int) (C1 Int) (D1 Int) (E1 Int) (F1 Int) (G1 Int) (H1 Int) (I1 Int) (J1 Int) (K1 Int) ) 
    (=>
      (and
        (INV1 M I C D J1 K1 G H)
        (and (= G H)
     (= E 0)
     (= D (+ (- 3) F))
     (not (= J1 0))
     (>= (+ (* 10 A) (* (- 1) J)) (- 9))
     (>= (+ (* 10 Y) (* (- 1) Z)) (- 9))
     (>= (+ (* 10 X) (* (- 1) M)) (- 9))
     (>= (+ (* 10 W) (* (- 1) M)) (- 9))
     (>= (+ (* 10 V) (* (- 1) W)) (- 9))
     (>= (+ (* 10 U) (* (- 1) M)) (- 9))
     (>= (+ (* 10 T) (* (- 1) M)) (- 9))
     (>= (+ (* 10 S) (* (- 1) T)) (- 9))
     (>= (+ (* 10 R) (* (- 1) S)) (- 9))
     (>= (+ (* 10 Q) (* (- 1) M)) (- 9))
     (>= (+ (* 10 P) (* (- 1) M)) (- 9))
     (>= (+ (* 10 O) (* (- 1) P)) (- 9))
     (>= (+ (* 10 N) (* (- 1) M)) (- 9))
     (>= (+ (* 10 L) (* (- 1) M)) (- 9))
     (>= (+ (* 10 K) (* (- 1) L)) (- 9))
     (>= (+ (* 10 J) (* (- 1) K)) (- 9))
     (>= (+ (* 10 A1) (* (- 1) M)) (- 9))
     (>= (+ (* 10 Z) (* (- 1) A1)) (- 9))
     (>= (+ (* 10 B1) (* (- 1) M)) (- 9))
     (>= (+ (* 10 I1) (* (- 1) M)) (- 9))
     (>= (+ (* 10 H1) (* (- 1) M)) (- 9))
     (>= (+ (* 10 G1) (* (- 1) M)) (- 9))
     (>= (+ (* 10 F1) (* (- 1) G1)) (- 9))
     (>= (+ (* 10 E1) (* (- 1) M)) (- 9))
     (>= (+ (* 10 D1) (* (- 1) M)) (- 9))
     (>= (+ (* 10 C1) (* (- 1) D1)) (- 9))
     (>= (+ X (* (- 10) V)) 0)
     (>= (+ V (* (- 10) R)) 0)
     (>= (+ U (* (- 10) S)) 0)
     (>= (+ R (* (- 10) A)) 0)
     (>= (+ Q (* (- 10) O)) 0)
     (>= (+ O (* (- 10) J)) 0)
     (>= (+ N (* (- 10) K)) 0)
     (>= (+ M (* (- 10) X)) 0)
     (>= (+ M (* (- 10) W)) 0)
     (>= (+ M (* (- 10) U)) 0)
     (>= (+ M (* (- 10) T)) 0)
     (>= (+ M (* (- 10) Q)) 0)
     (>= (+ M (* (- 10) P)) 0)
     (>= (+ M (* (- 10) N)) 0)
     (>= (+ M (* (- 10) L)) 0)
     (>= (+ M (* (- 10) A1)) 0)
     (>= (+ M (* (- 10) B1)) 0)
     (>= (+ M (* (- 10) I1)) 0)
     (>= (+ M (* (- 10) H1)) 0)
     (>= (+ M (* (- 10) G1)) 0)
     (>= (+ M (* (- 10) E1)) 0)
     (>= (+ M (* (- 10) D1)) 0)
     (>= (+ B1 (* (- 10) Z)) 0)
     (>= (+ H1 (* (- 10) F1)) 0)
     (>= (+ E1 (* (- 10) C1)) 0)
     (>= (+ C1 (* (- 10) Y)) 0)
     (>= Y 1)
     (>= M 1)
     (>= I1 1)
     (>= F1 1)
     (<= C 9999)
     (not (<= C 99))
     (not (<= C 999))
     (not (<= C 9))
     (= I (+ (- 4) B)))
      )
      (INV1 A B C D E F G H)
    )
  )
)
(assert
  (forall ( (A Int) (B Int) (C Int) (D Int) (E Int) (F Int) (G Int) (H Int) (I Int) (J Int) (K Int) (L Int) (M Int) (N Int) (O Int) (P Int) (Q Int) (R Int) (S Int) (T Int) (U Int) (V Int) (W Int) (X Int) (Y Int) (Z Int) (A1 Int) (B1 Int) (C1 Int) ) 
    (=>
      (and
        (INV1 L I C D B1 C1 G H)
        (and (= G H)
     (= E 0)
     (= D (+ (- 3) F))
     (not (= B1 0))
     (>= (+ (* 10 A) (* (- 1) J)) (- 9))
     (>= (+ (* 10 Q) (* (- 1) R)) (- 9))
     (>= (+ (* 10 P) (* (- 1) L)) (- 9))
     (>= (+ (* 10 O) (* (- 1) L)) (- 9))
     (>= (+ (* 10 N) (* (- 1) O)) (- 9))
     (>= (+ (* 10 M) (* (- 1) L)) (- 9))
     (>= (+ (* 10 K) (* (- 1) L)) (- 9))
     (>= (+ (* 10 J) (* (- 1) K)) (- 9))
     (>= (+ (* 10 S) (* (- 1) L)) (- 9))
     (>= (+ (* 10 R) (* (- 1) S)) (- 9))
     (>= (+ (* 10 T) (* (- 1) L)) (- 9))
     (>= (+ (* 10 A1) (* (- 1) L)) (- 9))
     (>= (+ (* 10 Z) (* (- 1) L)) (- 9))
     (>= (+ (* 10 Y) (* (- 1) L)) (- 9))
     (>= (+ (* 10 X) (* (- 1) Y)) (- 9))
     (>= (+ (* 10 W) (* (- 1) L)) (- 9))
     (>= (+ (* 10 V) (* (- 1) L)) (- 9))
     (>= (+ (* 10 U) (* (- 1) V)) (- 9))
     (>= (+ P (* (- 10) N)) 0)
     (>= (+ N (* (- 10) A)) 0)
     (>= (+ M (* (- 10) J)) 0)
     (>= (+ L (* (- 10) P)) 0)
     (>= (+ L (* (- 10) O)) 0)
     (>= (+ L (* (- 10) M)) 0)
     (>= (+ L (* (- 10) K)) 0)
     (>= (+ L (* (- 10) S)) 0)
     (>= (+ L (* (- 10) T)) 0)
     (>= (+ L (* (- 10) A1)) 0)
     (>= (+ L (* (- 10) Z)) 0)
     (>= (+ L (* (- 10) Y)) 0)
     (>= (+ L (* (- 10) W)) 0)
     (>= (+ L (* (- 10) V)) 0)
     (>= (+ T (* (- 10) R)) 0)
     (>= (+ Z (* (- 10) X)) 0)
     (>= (+ W (* (- 10) U)) 0)
     (>= (+ U (* (- 10) Q)) 0)
     (not (>= Q 1))
     (>= L 1)
     (>= A1 1)
     (>= X 1)
     (<= C 9999)
     (not (<= C 99))
     (not (<= C 999))
     (not (<= C 9))
     (= I (+ (- 3) B)))
      )
      (INV1 A B C D E F G H)
    )
  )
)
(assert
  (forall ( (A Int) (B Int) (C Int) (D Int) (E Int) (F Int) (G Int) (H Int) (I Int) (J Int) (K Int) (L Int) (M Int) ) 
    (=>
      (and
        (INV1 J I C D L M G H)
        (and (not (= L 0))
     (= I (+ (- 1) B))
     (= G H)
     (= E 0)
     (>= (+ (* 10 A) (* (- 1) J)) (- 9))
     (>= (+ (* 10 K) (* (- 1) J)) (- 9))
     (>= (+ J (* (- 10) A)) 0)
     (>= (+ J (* (- 10) K)) 0)
     (not (>= K 1))
     (>= J 1)
     (<= C 9999)
     (not (<= C 99))
     (not (<= C 999))
     (not (<= C 9))
     (= D (+ (- 3) F)))
      )
      (INV1 A B C D E F G H)
    )
  )
)
(assert
  (forall ( (A Int) (B Int) (C Int) (D Int) (E Int) (F Int) (G Int) (H Int) (I Int) (J Int) (K Int) (L Int) (M Int) (N Int) (O Int) (P Int) (Q Int) (R Int) ) 
    (=>
      (and
        (INV1 K I C D Q R G H)
        (and (= D (+ (- 1) F))
     (= G H)
     (= I (+ (- 2) B))
     (not (= Q 0))
     (>= (+ (* 10 A) (* (- 1) J)) (- 9))
     (>= (+ (* 10 P) (* (- 1) K)) (- 9))
     (>= (+ (* 10 O) (* (- 1) K)) (- 9))
     (>= (+ (* 10 N) (* (- 1) K)) (- 9))
     (>= (+ (* 10 M) (* (- 1) N)) (- 9))
     (>= (+ (* 10 L) (* (- 1) K)) (- 9))
     (>= (+ (* 10 J) (* (- 1) K)) (- 9))
     (>= (+ O (* (- 10) M)) 0)
     (>= (+ L (* (- 10) A)) 0)
     (>= (+ K (* (- 10) P)) 0)
     (>= (+ K (* (- 10) O)) 0)
     (>= (+ K (* (- 10) N)) 0)
     (>= (+ K (* (- 10) L)) 0)
     (>= (+ K (* (- 10) J)) 0)
     (>= P 1)
     (not (>= M 1))
     (>= K 1)
     (<= C 99)
     (not (<= C 9))
     (= E 0))
      )
      (INV1 A B C D E F G H)
    )
  )
)
(assert
  (forall ( (A Int) (B Int) (C Int) (D Int) (E Int) (F Int) (G Int) (H Int) (I Int) (J Int) (K Int) (L Int) (M Int) (N Int) (O Int) (P Int) (Q Int) (R Int) (S Int) (T Int) (U Int) (V Int) (W Int) (X Int) (Y Int) (Z Int) (A1 Int) (B1 Int) (C1 Int) (D1 Int) (E1 Int) (F1 Int) (G1 Int) (H1 Int) (I1 Int) (J1 Int) (K1 Int) ) 
    (=>
      (and
        (INV1 M I C D J1 K1 G H)
        (and (= G H)
     (= E 0)
     (= D (+ (- 1) F))
     (not (= J1 0))
     (>= (+ (* 10 A) (* (- 1) J)) (- 9))
     (>= (+ (* 10 Y) (* (- 1) Z)) (- 9))
     (>= (+ (* 10 X) (* (- 1) M)) (- 9))
     (>= (+ (* 10 W) (* (- 1) M)) (- 9))
     (>= (+ (* 10 V) (* (- 1) W)) (- 9))
     (>= (+ (* 10 U) (* (- 1) M)) (- 9))
     (>= (+ (* 10 T) (* (- 1) M)) (- 9))
     (>= (+ (* 10 S) (* (- 1) T)) (- 9))
     (>= (+ (* 10 R) (* (- 1) S)) (- 9))
     (>= (+ (* 10 Q) (* (- 1) M)) (- 9))
     (>= (+ (* 10 P) (* (- 1) M)) (- 9))
     (>= (+ (* 10 O) (* (- 1) P)) (- 9))
     (>= (+ (* 10 N) (* (- 1) M)) (- 9))
     (>= (+ (* 10 L) (* (- 1) M)) (- 9))
     (>= (+ (* 10 K) (* (- 1) L)) (- 9))
     (>= (+ (* 10 J) (* (- 1) K)) (- 9))
     (>= (+ (* 10 A1) (* (- 1) M)) (- 9))
     (>= (+ (* 10 Z) (* (- 1) A1)) (- 9))
     (>= (+ (* 10 B1) (* (- 1) M)) (- 9))
     (>= (+ (* 10 I1) (* (- 1) M)) (- 9))
     (>= (+ (* 10 H1) (* (- 1) M)) (- 9))
     (>= (+ (* 10 G1) (* (- 1) M)) (- 9))
     (>= (+ (* 10 F1) (* (- 1) G1)) (- 9))
     (>= (+ (* 10 E1) (* (- 1) M)) (- 9))
     (>= (+ (* 10 D1) (* (- 1) M)) (- 9))
     (>= (+ (* 10 C1) (* (- 1) D1)) (- 9))
     (>= (+ X (* (- 10) V)) 0)
     (>= (+ V (* (- 10) R)) 0)
     (>= (+ U (* (- 10) S)) 0)
     (>= (+ R (* (- 10) A)) 0)
     (>= (+ Q (* (- 10) O)) 0)
     (>= (+ O (* (- 10) J)) 0)
     (>= (+ N (* (- 10) K)) 0)
     (>= (+ M (* (- 10) X)) 0)
     (>= (+ M (* (- 10) W)) 0)
     (>= (+ M (* (- 10) U)) 0)
     (>= (+ M (* (- 10) T)) 0)
     (>= (+ M (* (- 10) Q)) 0)
     (>= (+ M (* (- 10) P)) 0)
     (>= (+ M (* (- 10) N)) 0)
     (>= (+ M (* (- 10) L)) 0)
     (>= (+ M (* (- 10) A1)) 0)
     (>= (+ M (* (- 10) B1)) 0)
     (>= (+ M (* (- 10) I1)) 0)
     (>= (+ M (* (- 10) H1)) 0)
     (>= (+ M (* (- 10) G1)) 0)
     (>= (+ M (* (- 10) E1)) 0)
     (>= (+ M (* (- 10) D1)) 0)
     (>= (+ B1 (* (- 10) Z)) 0)
     (>= (+ H1 (* (- 10) F1)) 0)
     (>= (+ E1 (* (- 10) C1)) 0)
     (>= (+ C1 (* (- 10) Y)) 0)
     (>= Y 1)
     (>= M 1)
     (>= I1 1)
     (>= F1 1)
     (<= C 99)
     (not (<= C 9))
     (= I (+ (- 4) B)))
      )
      (INV1 A B C D E F G H)
    )
  )
)
(assert
  (forall ( (A Int) (B Int) (C Int) (D Int) (E Int) (F Int) (G Int) (H Int) (I Int) (J Int) (K Int) (L Int) (M Int) (N Int) (O Int) (P Int) (Q Int) (R Int) (S Int) (T Int) (U Int) (V Int) (W Int) (X Int) (Y Int) (Z Int) (A1 Int) (B1 Int) (C1 Int) ) 
    (=>
      (and
        (INV1 L I C D B1 C1 G H)
        (and (= G H)
     (= E 0)
     (= D (+ (- 1) F))
     (not (= B1 0))
     (>= (+ (* 10 A) (* (- 1) J)) (- 9))
     (>= (+ (* 10 Q) (* (- 1) R)) (- 9))
     (>= (+ (* 10 P) (* (- 1) L)) (- 9))
     (>= (+ (* 10 O) (* (- 1) L)) (- 9))
     (>= (+ (* 10 N) (* (- 1) O)) (- 9))
     (>= (+ (* 10 M) (* (- 1) L)) (- 9))
     (>= (+ (* 10 K) (* (- 1) L)) (- 9))
     (>= (+ (* 10 J) (* (- 1) K)) (- 9))
     (>= (+ (* 10 S) (* (- 1) L)) (- 9))
     (>= (+ (* 10 R) (* (- 1) S)) (- 9))
     (>= (+ (* 10 T) (* (- 1) L)) (- 9))
     (>= (+ (* 10 A1) (* (- 1) L)) (- 9))
     (>= (+ (* 10 Z) (* (- 1) L)) (- 9))
     (>= (+ (* 10 Y) (* (- 1) L)) (- 9))
     (>= (+ (* 10 X) (* (- 1) Y)) (- 9))
     (>= (+ (* 10 W) (* (- 1) L)) (- 9))
     (>= (+ (* 10 V) (* (- 1) L)) (- 9))
     (>= (+ (* 10 U) (* (- 1) V)) (- 9))
     (>= (+ P (* (- 10) N)) 0)
     (>= (+ N (* (- 10) A)) 0)
     (>= (+ M (* (- 10) J)) 0)
     (>= (+ L (* (- 10) P)) 0)
     (>= (+ L (* (- 10) O)) 0)
     (>= (+ L (* (- 10) M)) 0)
     (>= (+ L (* (- 10) K)) 0)
     (>= (+ L (* (- 10) S)) 0)
     (>= (+ L (* (- 10) T)) 0)
     (>= (+ L (* (- 10) A1)) 0)
     (>= (+ L (* (- 10) Z)) 0)
     (>= (+ L (* (- 10) Y)) 0)
     (>= (+ L (* (- 10) W)) 0)
     (>= (+ L (* (- 10) V)) 0)
     (>= (+ T (* (- 10) R)) 0)
     (>= (+ Z (* (- 10) X)) 0)
     (>= (+ W (* (- 10) U)) 0)
     (>= (+ U (* (- 10) Q)) 0)
     (not (>= Q 1))
     (>= L 1)
     (>= A1 1)
     (>= X 1)
     (<= C 99)
     (not (<= C 9))
     (= I (+ (- 3) B)))
      )
      (INV1 A B C D E F G H)
    )
  )
)
(assert
  (forall ( (A Int) (B Int) (C Int) (D Int) (E Int) (F Int) (G Int) (H Int) (I Int) (J Int) (K Int) (L Int) (M Int) ) 
    (=>
      (and
        (INV1 J I C D L M G H)
        (and (not (= L 0))
     (= I (+ (- 1) B))
     (= G H)
     (= E 0)
     (>= (+ (* 10 A) (* (- 1) J)) (- 9))
     (>= (+ (* 10 K) (* (- 1) J)) (- 9))
     (>= (+ J (* (- 10) A)) 0)
     (>= (+ J (* (- 10) K)) 0)
     (not (>= K 1))
     (>= J 1)
     (<= C 99)
     (not (<= C 9))
     (= D (+ (- 1) F)))
      )
      (INV1 A B C D E F G H)
    )
  )
)
(assert
  (forall ( (A Int) (B Int) (C Int) (D Int) (E Int) (F Int) (G Int) (H Int) (I Int) (J Int) (K Int) ) 
    (=>
      (and
        (INV1 J I C D E F G H)
        (and (= G H)
     (= E 0)
     (>= (+ (* 10 A) (* (- 1) J)) (- 9))
     (>= (+ (* 10 K) (* (- 1) J)) (- 9))
     (>= (+ J (* (- 10) A)) 0)
     (>= (+ J (* (- 10) K)) 0)
     (not (>= K 1))
     (>= J 1)
     (= I (+ (- 1) B)))
      )
      (INV1 A B C D E F G H)
    )
  )
)
(assert
  (forall ( (A Int) (B Int) (C Int) (D Int) (E Int) (F Int) (G Int) (H Int) (I Int) (J Int) (K Int) (L Int) (M Int) (N Int) (O Int) (P Int) (Q Int) (R Int) (S Int) (T Int) (U Int) (V Int) (W Int) (X Int) (Y Int) (Z Int) (A1 Int) ) 
    (=>
      (and
        (INV1 L I C D E F G H)
        (and (= G H)
     (= E 0)
     (>= (+ (* 10 O) (* (- 1) L)) (- 9))
     (>= (+ (* 10 N) (* (- 1) O)) (- 9))
     (>= (+ (* 10 M) (* (- 1) L)) (- 9))
     (>= (+ (* 10 K) (* (- 1) L)) (- 9))
     (>= (+ (* 10 J) (* (- 1) K)) (- 9))
     (>= (+ (* 10 A) (* (- 1) J)) (- 9))
     (>= (+ (* 10 Q) (* (- 1) R)) (- 9))
     (>= (+ (* 10 P) (* (- 1) L)) (- 9))
     (>= (+ (* 10 R) (* (- 1) S)) (- 9))
     (>= (+ (* 10 A1) (* (- 1) L)) (- 9))
     (>= (+ (* 10 Z) (* (- 1) L)) (- 9))
     (>= (+ (* 10 Y) (* (- 1) L)) (- 9))
     (>= (+ (* 10 X) (* (- 1) Y)) (- 9))
     (>= (+ (* 10 W) (* (- 1) L)) (- 9))
     (>= (+ (* 10 V) (* (- 1) L)) (- 9))
     (>= (+ (* 10 U) (* (- 1) V)) (- 9))
     (>= (+ (* 10 T) (* (- 1) L)) (- 9))
     (>= (+ (* 10 S) (* (- 1) L)) (- 9))
     (>= (+ N (* (- 10) A)) 0)
     (>= (+ M (* (- 10) J)) 0)
     (>= (+ L (* (- 10) O)) 0)
     (>= (+ L (* (- 10) M)) 0)
     (>= (+ L (* (- 10) K)) 0)
     (>= (+ L (* (- 10) P)) 0)
     (>= (+ L (* (- 10) A1)) 0)
     (>= (+ L (* (- 10) Z)) 0)
     (>= (+ L (* (- 10) Y)) 0)
     (>= (+ L (* (- 10) W)) 0)
     (>= (+ L (* (- 10) V)) 0)
     (>= (+ L (* (- 10) T)) 0)
     (>= (+ L (* (- 10) S)) 0)
     (>= (+ P (* (- 10) N)) 0)
     (>= (+ Z (* (- 10) X)) 0)
     (>= (+ W (* (- 10) U)) 0)
     (>= (+ U (* (- 10) Q)) 0)
     (>= (+ T (* (- 10) R)) 0)
     (>= L 1)
     (not (>= Q 1))
     (>= A1 1)
     (>= X 1)
     (= I (+ (- 3) B)))
      )
      (INV1 A B C D E F G H)
    )
  )
)
(assert
  (forall ( (A Int) (B Int) (C Int) (D Int) (E Int) (F Int) (G Int) (H Int) (I Int) (J Int) (K Int) (L Int) (M Int) (N Int) (O Int) (P Int) (Q Int) (R Int) (S Int) (T Int) (U Int) (V Int) (W Int) (X Int) (Y Int) (Z Int) (A1 Int) (B1 Int) (C1 Int) (D1 Int) (E1 Int) (F1 Int) (G1 Int) (H1 Int) (I1 Int) ) 
    (=>
      (and
        (INV1 M I C D E F G H)
        (and (= E 0)
     (= I (+ (- 4) B))
     (>= (+ (* 10 A) (* (- 1) J)) (- 9))
     (>= (+ (* 10 W) (* (- 1) M)) (- 9))
     (>= (+ (* 10 V) (* (- 1) W)) (- 9))
     (>= (+ (* 10 U) (* (- 1) M)) (- 9))
     (>= (+ (* 10 T) (* (- 1) M)) (- 9))
     (>= (+ (* 10 S) (* (- 1) T)) (- 9))
     (>= (+ (* 10 R) (* (- 1) S)) (- 9))
     (>= (+ (* 10 Q) (* (- 1) M)) (- 9))
     (>= (+ (* 10 P) (* (- 1) M)) (- 9))
     (>= (+ (* 10 O) (* (- 1) P)) (- 9))
     (>= (+ (* 10 N) (* (- 1) M)) (- 9))
     (>= (+ (* 10 L) (* (- 1) M)) (- 9))
     (>= (+ (* 10 K) (* (- 1) L)) (- 9))
     (>= (+ (* 10 J) (* (- 1) K)) (- 9))
     (>= (+ (* 10 Y) (* (- 1) Z)) (- 9))
     (>= (+ (* 10 X) (* (- 1) M)) (- 9))
     (>= (+ (* 10 Z) (* (- 1) A1)) (- 9))
     (>= (+ (* 10 I1) (* (- 1) M)) (- 9))
     (>= (+ (* 10 H1) (* (- 1) M)) (- 9))
     (>= (+ (* 10 G1) (* (- 1) M)) (- 9))
     (>= (+ (* 10 F1) (* (- 1) G1)) (- 9))
     (>= (+ (* 10 E1) (* (- 1) M)) (- 9))
     (>= (+ (* 10 D1) (* (- 1) M)) (- 9))
     (>= (+ (* 10 C1) (* (- 1) D1)) (- 9))
     (>= (+ (* 10 B1) (* (- 1) M)) (- 9))
     (>= (+ (* 10 A1) (* (- 1) M)) (- 9))
     (>= (+ V (* (- 10) R)) 0)
     (>= (+ U (* (- 10) S)) 0)
     (>= (+ R (* (- 10) A)) 0)
     (>= (+ Q (* (- 10) O)) 0)
     (>= (+ O (* (- 10) J)) 0)
     (>= (+ N (* (- 10) K)) 0)
     (>= (+ M (* (- 10) W)) 0)
     (>= (+ M (* (- 10) U)) 0)
     (>= (+ M (* (- 10) T)) 0)
     (>= (+ M (* (- 10) Q)) 0)
     (>= (+ M (* (- 10) P)) 0)
     (>= (+ M (* (- 10) N)) 0)
     (>= (+ M (* (- 10) L)) 0)
     (>= (+ M (* (- 10) X)) 0)
     (>= (+ M (* (- 10) I1)) 0)
     (>= (+ M (* (- 10) H1)) 0)
     (>= (+ M (* (- 10) G1)) 0)
     (>= (+ M (* (- 10) E1)) 0)
     (>= (+ M (* (- 10) D1)) 0)
     (>= (+ M (* (- 10) B1)) 0)
     (>= (+ M (* (- 10) A1)) 0)
     (>= (+ X (* (- 10) V)) 0)
     (>= (+ H1 (* (- 10) F1)) 0)
     (>= (+ E1 (* (- 10) C1)) 0)
     (>= (+ C1 (* (- 10) Y)) 0)
     (>= (+ B1 (* (- 10) Z)) 0)
     (>= M 1)
     (>= Y 1)
     (>= I1 1)
     (>= F1 1)
     (= G H))
      )
      (INV1 A B C D E F G H)
    )
  )
)
(assert
  (forall ( (A Int) (B Int) (C Int) (D Int) (E Int) (F Int) (G Int) (H Int) (I Int) (J Int) (K Int) (L Int) (M Int) (N Int) (O Int) (P Int) ) 
    (=>
      (and
        (INV1 K I C D E F G H)
        (and (= G H)
     (= I (+ (- 2) B))
     (>= (+ (* 10 A) (* (- 1) J)) (- 9))
     (>= (+ (* 10 P) (* (- 1) K)) (- 9))
     (>= (+ (* 10 O) (* (- 1) K)) (- 9))
     (>= (+ (* 10 N) (* (- 1) K)) (- 9))
     (>= (+ (* 10 M) (* (- 1) N)) (- 9))
     (>= (+ (* 10 L) (* (- 1) K)) (- 9))
     (>= (+ (* 10 J) (* (- 1) K)) (- 9))
     (>= (+ O (* (- 10) M)) 0)
     (>= (+ L (* (- 10) A)) 0)
     (>= (+ K (* (- 10) P)) 0)
     (>= (+ K (* (- 10) O)) 0)
     (>= (+ K (* (- 10) N)) 0)
     (>= (+ K (* (- 10) L)) 0)
     (>= (+ K (* (- 10) J)) 0)
     (>= P 1)
     (not (>= M 1))
     (>= K 1)
     (= E 0))
      )
      (INV1 A B C D E F G H)
    )
  )
)
(assert
  (forall ( (A Int) (B Int) (C Int) (D Int) (E Int) (F Int) (G Int) (v_7 Int) ) 
    (=>
      (and
        (and (= F (- 1))
     (= E 1)
     (= D 1)
     (= B 1)
     (>= (+ (* 10 A) (* (- 1) G)) (- 9))
     (>= (+ G (* (- 10) A)) 0)
     (= G C)
     (= v_7 C))
      )
      (INV1 A B C D E F G v_7)
    )
  )
)
(assert
  (forall ( (A Int) (B Int) (C Int) (D Int) (E Int) (F Int) (G Int) (H Int) ) 
    (=>
      (and
        (INV1 C A E F D B G H)
        (and (= D 0) (not (= A B)) (not (>= C 1)) (= G H))
      )
      false
    )
  )
)

(check-sat)
(exit)
